g3 1 1 0	# problem ir5
 2 0 1 0 0	# vars, constraints, objectives, ranges, eqns
 0 1	# nonlinear constraints, objectives
 0 0	# network constraints: nonlinear, linear
 0 2 0	# nonlinear vars in constraints, objectives, both
 0 0 0 1	# linear network variables; functions; arith, flags
 0 0 0 0 0	# discrete variables: binary, integer, nonlinear (b,c,o)
 0 2	# nonzeros in Jacobian, gradients
 0 0	# max name lengths: constraints, variables
 0 0 0 0 0	# common exprs: b,c,o,c1,o1
O0 0
o3
n1
o54
26
o3
n1
o0
n1
o0
o5
o1
v0
n-32
n6
o5
o1
v1
n-32
n6
o3
n1
o0
n2
o0
o5
o1
v0
n-16
n6
o5
o1
v1
n-32
n6
o3
n1
o0
n3
o0
o5
v0
n6
o5
o1
v1
n-32
n6
o3
n1
o0
n4
o0
o5
o1
v0
n16
n6
o5
o1
v1
n-32
n6
o3
n1
o0
n5
o0
o5
o1
v0
n32
n6
o5
o1
v1
n-32
n6
o3
n1
o0
n6
o0
o5
o1
v0
n-32
n6
o5
o1
v1
n-16
n6
o3
n1
o0
n7
o0
o5
o1
v0
n-16
n6
o5
o1
v1
n-16
n6
o3
n1
o0
n8
o0
o5
v0
n6
o5
o1
v1
n-16
n6
o3
n1
o0
n9
o0
o5
o1
v0
n16
n6
o5
o1
v1
n-16
n6
o3
n1
o0
n10
o0
o5
o1
v0
n32
n6
o5
o1
v1
n-16
n6
o3
n1
o0
n11
o0
o5
o1
v0
n-32
n6
o5
v1
n6
o3
n1
o0
n12
o0
o5
o1
v0
n-16
n6
o5
v1
n6
o3
n1
o0
n13
o0
o5
v0
n6
o5
v1
n6
o3
n1
o0
n14
o0
o5
o1
v0
n16
n6
o5
v1
n6
o3
n1
o0
n15
o0
o5
o1
v0
n32
n6
o5
v1
n6
o3
n1
o0
n16
o0
o5
o1
v0
n-32
n6
o5
o1
v1
n16
n6
o3
n1
o0
n17
o0
o5
o1
v0
n-16
n6
o5
o1
v1
n16
n6
o3
n1
o0
n18
o0
o5
v0
n6
o5
o1
v1
n16
n6
o3
n1
o0
n19
o0
o5
o1
v0
n16
n6
o5
o1
v1
n16
n6
o3
n1
o0
n20
o0
o5
o1
v0
n32
n6
o5
o1
v1
n16
n6
o3
n1
o0
n21
o0
o5
o1
v0
n-32
n6
o5
o1
v1
n32
n6
o3
n1
o0
n22
o0
o5
o1
v0
n-16
n6
o5
o1
v1
n32
n6
o3
n1
o0
n23
o0
o5
v0
n6
o5
o1
v1
n32
n6
o3
n1
o0
n24
o0
o5
o1
v0
n16
n6
o5
o1
v1
n32
n6
o3
n1
o0
n25
o0
o5
o1
v0
n32
n6
o5
o1
v1
n32
n6
n500
b
0 -65.536 65.536
0 -65.536 65.536
k1
0
G0 2
0 0
1 0
